102 300 108 125 149 110 147 119 150 123 121 120 134 103 146 117 112 114 110 104 101 121 115 139 111 139 120 108 118 126 101 112 125 134 137 123 145 108 117 118 131 138 112 139 142 107 105 128 146 115 133 148 110 148 110 147 136 104 104 104 130 105 141 105 140 101 102 108 134 119 100 115 107 112 128 123 144 134 100 114 123 133 111 108 131 146 104 141 100 108 119 130 139 109 135 102 136 112 135 119 131 135 108 112 